<number of tasks>
20

<cycle time>
1000

<order strength>
0,505


<task times>
1 76
2 142
3 155
4 86
5 290
6 70
7 70
8 122
9 135
10 132
11 35
12 45
13 86
14 206
15 303
16 171
17 120
18 245
19 173
20 323

<precedence relations>
1,3
1,5
2,4
2,5
3,6
4,7
5,8
5,9
5,10
5,11
6,12
7,13
8,12
8,18
9,16
10,13
11,13
13,14
13,15
13,16
14,17
14,18
14,19
14,20
15,18

<end>
